c [MSE2022] -- begin -- [MSE2022]
0.00/0.01	c
0.00/0.01	c NuWLS based on TT-Open-WBO-Inc:	 an Anytime MaxSAT Solver --- based on Glucose4.1 (core version)
0.00/0.01	c Version:	 MaxSAT Evaluation 2021
0.00/0.01	c Author of NuWLS:	 Yi Chu, Xiang He
0.00/0.01	c Author of TT-Open-WBO-Inc:	 Alexander Nadel
0.00/0.01	c Authors of the baseline solver Open-WBO-Inc:	 Saurabh Joshi, Prateek Kumar, Ruben Martins, Sukrut Rao
0.00/0.01	c WARNING: for repeatability, setting FPU to use double precision
0.00/0.01	c |                                                                                                       |
0.00/0.01	c ========================================[ Problem Statistics ]===========================================
0.00/0.01	c |                                                                                                       |
0.00/0.01	c |  Problem Format:             MaxSAT                                                                   |
0.00/0.01	c |  Problem Type:           Unweighted                                                                   |
0.00/0.01	c |  Number of variables:          1173                                                                   |
0.00/0.01	c |  Number of hard clauses:          0                                                                   |
0.00/0.01	c |  Number of soft clauses:       6416                                                                   |
0.00/0.01	c |  Number of cardinality:           0                                                                   |
0.00/0.01	c |  Number of PB :                   0                                                                   |
0.00/0.01	c |  Parse time:                   0.00 s                                                                 |
0.00/0.01	c |                                                                                                       |
0.00/0.01	c | best-alg-selector overriden target_vars_bump_val to 0, since it hadn't been set by the user |
0.00/0.01	c | best-alg-selector overriden ms_model_per_sec_thr to 2, since it hadn't been set by the user |
0.00/0.01	c | best-alg-selector overriden ms_mutation_classes to 0, since it hadn't been set by the user |
0.00/0.01	c | best-alg-selector overriden ms_chrono to 100, since it hadn't been set by the user |
0.00/0.01	c ==========================================[ Solver Settings ]============================================
0.00/0.01	c |                                                                                                       |
0.00/0.01	c |  Algorithm:                     OBV                                                                   |
0.00/0.01	c |  Cardinality Encoding:       Modulo Totalizer                                                         |
0.00/0.01	c |  Limit number conflicts:       1000                                                                   |
0.00/0.01	c |  Limit number iterations: 2147483647                                                                   |
0.00/0.01	c |  Global limit number conflicts:   F                                                                   |
0.00/0.01	c |                                                                                                       |
0.00/0.01	c Mrs. Beaver incomplete stage
0.00/0.01	o 1035
0.00/0.01	c total_lit_count 14005
0.00/0.01	c before build neighbor
0.00/0.01	c build instime is 0
0.00/0.01	c using neighbor 
0.00/0.01	c build NuWLS instance done!
0.00/0.01	c changing to NuWLS solver!!!
0.00/0.01	c problem weighted = 0
0.00/0.01	o 1035
0.00/0.01	o 1030
0.00/0.01	o 1025
0.00/0.01	o 1020
0.00/0.01	o 1016
0.00/0.01	o 1012
0.00/0.01	o 1008
0.00/0.01	o 1004
0.00/0.01	o 1000
0.00/0.01	o 996
0.00/0.01	o 992
0.00/0.01	o 989
0.00/0.01	o 986
0.00/0.01	o 983
0.00/0.01	o 980
0.00/0.01	o 977
0.00/0.01	o 974
0.00/0.01	o 971
0.00/0.01	o 968
0.00/0.01	o 965
0.00/0.01	o 962
0.00/0.01	o 959
0.00/0.01	o 956
0.00/0.01	o 953
0.00/0.01	o 950
0.00/0.01	o 947
0.00/0.01	o 945
0.00/0.01	o 942
0.00/0.01	o 940
0.00/0.01	o 938
0.00/0.01	o 936
0.00/0.01	o 933
0.00/0.01	o 931
0.00/0.01	o 929
0.00/0.01	o 926
0.00/0.01	o 924
0.00/0.01	o 922
0.00/0.01	o 920
0.00/0.01	o 918
0.00/0.01	o 916
0.00/0.01	o 913
0.00/0.01	o 911
0.00/0.01	o 909
0.00/0.01	o 907
0.00/0.01	o 905
0.00/0.01	o 903
0.00/0.01	o 901
0.00/0.01	o 898
0.00/0.01	o 896
0.00/0.01	o 894
0.00/0.01	o 892
0.00/0.01	o 890
0.00/0.01	o 888
0.00/0.01	o 886
0.00/0.01	o 884
0.00/0.01	o 882
0.00/0.01	o 880
0.00/0.01	o 878
0.00/0.01	o 876
0.00/0.01	o 874
0.00/0.01	o 872
0.00/0.01	o 870
0.00/0.01	o 868
0.00/0.01	o 866
0.00/0.01	o 864
0.00/0.01	o 862
0.00/0.01	o 860
0.00/0.01	o 858
0.00/0.01	o 856
0.00/0.01	o 854
0.00/0.01	o 852
0.00/0.01	o 850
0.00/0.01	o 848
0.00/0.01	o 847
0.00/0.01	o 845
0.00/0.01	o 844
0.00/0.01	o 842
0.00/0.01	o 841
0.00/0.01	o 840
0.00/0.02	o 839
0.00/0.02	o 837
0.00/0.02	o 836
0.00/0.02	o 835
0.00/0.02	o 834
0.00/0.02	o 833
0.00/0.02	o 832
0.00/0.02	o 830
0.00/0.02	o 829
0.00/0.02	o 828
0.00/0.02	o 827
0.00/0.02	o 826
0.00/0.02	o 825
0.00/0.02	o 824
0.00/0.02	o 823
0.00/0.02	o 822
0.00/0.02	o 821
0.00/0.02	o 820
0.00/0.02	o 819
0.00/0.02	o 818
0.00/0.02	o 817
0.00/0.02	o 816
0.00/0.02	o 815
0.00/0.02	o 814
0.00/0.02	o 813
0.00/0.02	o 812
0.00/0.02	o 811
0.00/0.02	o 810
0.00/0.02	o 809
0.00/0.02	o 808
0.00/0.02	o 807
0.00/0.02	o 805
0.00/0.02	o 803
0.00/0.02	o 801
0.00/0.02	o 800
0.00/0.02	o 799
0.00/0.02	o 798
0.00/0.02	o 797
0.00/0.02	o 796
0.00/0.02	o 795
0.00/0.02	o 794
0.00/0.02	o 793
0.00/0.02	o 792
0.00/0.02	o 791
0.00/0.02	o 790
0.00/0.02	o 789
0.00/0.02	o 788
0.00/0.02	o 786
0.00/0.02	o 785
0.00/0.02	o 784
0.00/0.02	o 783
0.00/0.02	o 782
0.00/0.02	o 781
0.00/0.02	o 780
0.00/0.02	o 779
0.00/0.02	o 778
0.00/0.02	o 777
0.00/0.02	o 775
0.00/0.02	o 774
0.00/0.02	o 773
0.00/0.02	o 772
0.00/0.02	o 771
0.00/0.02	o 770
0.00/0.02	o 769
0.00/0.02	o 768
0.00/0.02	o 767
0.00/0.02	o 766
0.00/0.02	o 765
0.00/0.02	o 764
0.00/0.02	o 763
0.00/0.02	o 762
0.00/0.02	o 761
0.00/0.02	o 760
0.00/0.02	o 759
0.00/0.02	o 758
0.00/0.02	o 757
0.00/0.02	o 756
0.00/0.02	o 755
0.00/0.02	o 754
0.00/0.02	o 753
0.00/0.02	o 752
0.00/0.02	o 750
0.00/0.02	o 749
0.00/0.02	o 748
0.00/0.02	o 747
0.00/0.02	o 746
0.00/0.02	o 745
0.00/0.02	o 744
0.00/0.02	o 743
0.00/0.02	o 742
0.00/0.02	o 741
0.00/0.02	o 740
0.00/0.02	o 739
0.00/0.02	o 738
0.00/0.02	o 737
0.00/0.03	o 736
0.00/0.03	o 735
0.00/0.03	o 734
0.00/0.03	o 733
0.00/0.03	o 731
0.00/0.03	o 729
0.00/0.03	o 728
0.00/0.03	o 727
0.00/0.03	o 726
0.00/0.03	o 725
0.00/0.03	o 724
0.00/0.03	o 723
0.00/0.03	o 721
0.00/0.03	o 720
0.00/0.03	o 719
0.00/0.03	o 718
0.00/0.03	o 717
0.00/0.03	o 716
0.00/0.03	o 715
0.00/0.03	o 714
0.00/0.03	o 713
0.00/0.03	o 712
0.00/0.03	o 711
0.00/0.03	o 710
0.00/0.03	o 709
0.00/0.03	o 708
0.00/0.03	o 706
0.00/0.03	o 705
0.00/0.03	o 704
0.00/0.03	o 703
0.00/0.03	o 702
0.00/0.03	o 701
0.00/0.03	o 700
0.00/0.03	o 699
0.00/0.03	o 698
0.00/0.03	o 697
0.00/0.03	o 696
0.00/0.03	o 695
0.00/0.03	o 694
0.00/0.03	o 693
0.00/0.03	o 692
0.00/0.03	o 691
0.00/0.03	o 690
0.00/0.03	o 689
0.00/0.03	o 687
0.00/0.03	o 686
0.00/0.03	o 685
0.00/0.03	o 684
0.00/0.03	o 683
0.00/0.03	o 682
0.00/0.03	o 681
0.00/0.03	o 680
0.00/0.03	o 679
0.00/0.03	o 678
0.00/0.03	o 677
0.00/0.03	o 676
0.00/0.03	o 675
0.00/0.03	o 674
0.00/0.03	o 673
0.00/0.03	o 672
0.00/0.03	o 671
0.00/0.03	o 670
0.00/0.03	o 669
0.00/0.03	o 668
0.00/0.03	o 667
0.00/0.03	o 666
0.00/0.03	o 665
0.00/0.03	o 664
0.00/0.03	o 662
0.00/0.03	o 661
0.00/0.03	o 660
0.00/0.03	o 659
0.00/0.03	o 658
0.00/0.03	o 657
0.00/0.03	o 656
0.00/0.03	o 655
0.00/0.03	o 654
0.00/0.03	o 653
0.00/0.03	o 652
0.00/0.03	o 651
0.00/0.03	o 650
0.00/0.03	o 649
0.00/0.03	o 648
0.00/0.03	o 647
0.00/0.03	o 646
0.00/0.03	o 645
0.00/0.03	o 644
0.00/0.03	o 643
0.00/0.03	o 642
0.00/0.03	o 641
0.00/0.03	o 640
0.00/0.03	o 639
0.00/0.03	o 638
0.00/0.03	o 637
0.00/0.04	o 635
0.00/0.04	o 634
0.00/0.04	o 633
0.00/0.04	o 632
0.00/0.04	o 631
0.00/0.04	o 630
0.00/0.04	o 629
0.00/0.04	o 627
0.00/0.04	o 626
0.00/0.04	o 625
0.00/0.04	o 624
0.00/0.07	o 623
0.00/0.07	o 622
0.00/0.07	o 621
0.00/0.07	o 620
0.00/0.07	o 619
0.07/0.08	s SATISFIABLE
0.07/0.08	o 619 
0.07/0.08	v 001000011110010010100011010011101000110100111010000111111010000101010100010110011111011011111111100000110101110010011101110010100111011010101110110011111110111111100110100110001101011001010110111101100010001010101001000110101010000101001111011111011011011011010110011110000111011000110111001100010100111111001100110001111110100111000111011100111001110011001010010100100011001111010110001101111010101101010100001011110010111110100111001110001010101000011000100101011110000111011101110110000001100110011011000110101010110101000000010110010110001110010011111000101110110001110111110010101100101111110011001000011100001111000111011111111111111100111001100001010001001001111111110001011011111001110001010100000011000000011110110100001100011100001101000101000000000110011000101101010000111101000000000100100100001101011110100001101110101101101111010111100000101010110101000110111010010000001010100111001011100100110011110101000100101011011101001111011001100110011011111110010101100000110010101100001011111111000111100011110001100101110111100110010111011111010011111100010110011001011100010010001111000011001110100010110001011000100001011101101000111101010111000001111010000111001
c [MSE2022] -- end -- [MSE2022]
